NAME : random_6
COMMENT : 43 random nodes
TYPE : TSP
DIMENSION : 43
EDGE_WEIGHT_TYPE : EUC_2D
NODE_COORD_SECTION
1 6293 3674
2 -2395 5577
3 643 -479
4 6225 -3463
5 1058 1251
6 3728 -2495
7 7411 -2020
8 1938 6642
9 6913 3739
10 -3778 4341
11 2375 5481
12 6171 1848
13 -5377 4907
14 471 262
15 -5220 5546
16 2272 3298
17 4078 -4433
18 -4373 4534
19 4491 -4558
20 3818 1082
21 5551 -4148
22 -6250 5218
23 5102 -4946
24 -4530 2025
25 5046 -5347
26 -2516 -2656
27 6073 -631
28 -4014 2269
29 -5347 -2459
30 4478 -1113
31 4624 -1004
32 4294 7396
33 -1017 -3200
34 -1859 6832
35 4077 -5134
36 5086 -2078
37 -2127 -5484
38 -4301 -4592
39 -5724 -5596
40 -240 2146
41 7441 1305
42 -3958 5705
43 573 -5535
EOF